
<<< setup

Version identifier: 22.1.1.0 | 2022-11-27 | 9160aff4d
Tried aggregator 1 time.
LP Presolve eliminated 1741 rows and 1653 columns.
Aggregator did 1 substitutions.
Reduced LP has 55 rows, 119 columns, and 222 nonzeros.
Presolve time = 0.00 sec. (3.33 ticks)

Iteration log . . .
Iteration:     1   Dual infeasibility =           735.958522
Iteration:    61   Dual objective     =          1281.499878
main returns 0

<<< main


<<< done

